0 8 2 3 6 4 6 7 3 4
8 0 1 2 5 8 6 2 5 6
2 1 0 1 2 6 8 1 1 7
3 2 1 0 8 8 5 1 3 6
6 5 2 8 0 5 5 2 5 9
4 8 6 8 5 0 1 7 8 4
6 6 8 5 5 1 0 6 2 2
7 2 1 1 2 7 6 0 1 9
3 5 1 3 5 8 2 1 0 6
4 6 7 6 9 4 2 9 6 0
